c CNF file generated from BLIF2CNF script.
c Original BLIF file was -
p cnf 14 35
-1 -3 0
3 1  0
-3 2 0
-2 3  0
-4 -9 0
-5 -9 0
-6 -9 0
9 4 5 6  0
-9 1 0
-4 -10 0
-5 -10 0
-7 -10 0
10 4 5 7  0
-10 1 0
-4 -11 0
-6 -11 0
-7 -11 0
11 4 6 7  0
-11 1 0
-4 -12 0
-5 -12 0
-8 -12 0
12 4 5 8  0
-12 1 0
-4 -13 0
-6 -13 0
-8 -13 0
13 4 6 8  0
-13 1 0
-4 -14 0
-7 -14 0
-8 -14 0
14 4 7 8  0
-14 1 0
-1 9 10 11 12 13 14  0
